30
1 0 1
2 0 2
2 1 1
3 0 3
3 1 3
3 2 1
4 0 3
4 1 1
4 2 1
4 3 2
5 0 2
5 1 1
5 2 2
5 3 1
5 4 3
6 0 1
6 1 2
6 2 1
6 3 1
6 4 3
6 5 2
7 0 1
7 1 3
7 2 1
7 3 1
7 4 1
7 5 1
7 6 3
8 0 3
8 1 3
8 2 3
8 3 2
8 4 1
8 5 1
8 6 3
8 7 3
9 0 2
9 1 1
9 2 3
9 3 3
9 4 2
9 5 1
9 6 1
9 7 3
9 8 2
10 0 1
10 1 1
10 2 2
10 3 2
10 4 2
10 5 2
10 6 1
10 7 2
10 8 3
10 9 2
11 0 3
11 1 1
11 2 1
11 3 1
11 4 2
11 5 3
11 6 3
11 7 1
11 8 3
11 9 3
11 10 2
12 0 2
12 1 1
12 2 3
12 3 3
12 4 2
12 5 1
12 6 2
12 7 2
12 8 2
12 9 1
12 10 2
12 11 3
13 0 3
13 1 3
13 2 1
13 3 3
13 4 2
13 5 1
13 6 1
13 7 2
13 8 2
13 9 3
13 10 2
13 11 3
13 12 1
14 0 3
14 1 2
14 2 1
14 3 1
14 4 2
14 5 1
14 6 3
14 7 2
14 8 3
14 9 2
14 10 2
14 11 2
14 12 1
14 13 2
15 0 3
15 1 2
15 2 1
15 3 2
15 4 1
15 5 1
15 6 1
15 7 2
15 8 1
15 9 3
15 10 3
15 11 2
15 12 3
15 13 1
15 14 3
16 0 1
16 1 1
16 2 1
16 3 3
16 4 3
16 5 2
16 6 2
16 7 1
16 8 3
16 9 3
16 10 2
16 11 1
16 12 2
16 13 2
16 14 2
16 15 3
17 0 1
17 1 3
17 2 1
17 3 3
17 4 1
17 5 2
17 6 1
17 7 3
17 8 2
17 9 3
17 10 2
17 11 3
17 12 3
17 13 1
17 14 2
17 15 1
17 16 3
18 0 3
18 1 2
18 2 1
18 3 1
18 4 1
18 5 3
18 6 3
18 7 1
18 8 3
18 9 2
18 10 3
18 11 3
18 12 3
18 13 2
18 14 1
18 15 1
18 16 3
18 17 3
19 0 1
19 1 2
19 2 2
19 3 2
19 4 1
19 5 1
19 6 2
19 7 1
19 8 1
19 9 3
19 10 1
19 11 3
19 12 1
19 13 3
19 14 1
19 15 3
19 16 2
19 17 2
19 18 1
20 0 2
20 1 3
20 2 1
20 3 2
20 4 1
20 5 1
20 6 3
20 7 3
20 8 1
20 9 1
20 10 1
20 11 3
20 12 1
20 13 2
20 14 1
20 15 1
20 16 2
20 17 1
20 18 1
20 19 1
21 0 3
21 1 3
21 2 1
21 3 1
21 4 3
21 5 3
21 6 3
21 7 2
21 8 1
21 9 3
21 10 1
21 11 1
21 12 3
21 13 1
21 14 3
21 15 2
21 16 3
21 17 1
21 18 3
21 19 3
21 20 1
22 0 2
22 1 3
22 2 3
22 3 3
22 4 1
22 5 2
22 6 3
22 7 3
22 8 3
22 9 1
22 10 1
22 11 1
22 12 3
22 13 2
22 14 2
22 15 1
22 16 1
22 17 3
22 18 1
22 19 1
22 20 3
22 21 2
23 0 1
23 1 3
23 2 2
23 3 2
23 4 3
23 5 1
23 6 2
23 7 1
23 8 1
23 9 2
23 10 1
23 11 1
23 12 1
23 13 3
23 14 1
23 15 3
23 16 1
23 17 3
23 18 1
23 19 3
23 20 1
23 21 1
23 22 3
24 0 3
24 1 3
24 2 3
24 3 1
24 4 3
24 5 2
24 6 2
24 7 3
24 8 2
24 9 2
24 10 1
24 11 2
24 12 2
24 13 3
24 14 2
24 15 2
24 16 3
24 17 3
24 18 3
24 19 3
24 20 3
24 21 1
24 22 2
24 23 2
25 0 3
25 1 1
25 2 2
25 3 2
25 4 3
25 5 1
25 6 2
25 7 3
25 8 3
25 9 2
25 10 1
25 11 2
25 12 1
25 13 3
25 14 1
25 15 2
25 16 2
25 17 1
25 18 3
25 19 3
25 20 2
25 21 1
25 22 2
25 23 2
25 24 2
26 0 2
26 1 2
26 2 1
26 3 2
26 4 1
26 5 2
26 6 1
26 7 1
26 8 3
26 9 3
26 10 2
26 11 3
26 12 1
26 13 2
26 14 2
26 15 3
26 16 3
26 17 3
26 18 2
26 19 3
26 20 2
26 21 2
26 22 2
26 23 2
26 24 2
26 25 2
27 0 3
27 1 1
27 2 3
27 3 3
27 4 1
27 5 1
27 6 1
27 7 1
27 8 2
27 9 2
27 10 3
27 11 2
27 12 1
27 13 3
27 14 1
27 15 2
27 16 1
27 17 2
27 18 3
27 19 2
27 20 1
27 21 1
27 22 2
27 23 2
27 24 2
27 25 2
27 26 3
28 0 1
28 1 1
28 2 3
28 3 3
28 4 1
28 5 1
28 6 1
28 7 1
28 8 3
28 9 2
28 10 2
28 11 2
28 12 2
28 13 3
28 14 1
28 15 1
28 16 3
28 17 3
28 18 2
28 19 2
28 20 1
28 21 1
28 22 3
28 23 3
28 24 3
28 25 3
28 26 1
28 27 2
29 0 1
29 1 1
29 2 2
29 3 1
29 4 3
29 5 3
29 6 3
29 7 1
29 8 2
29 9 2
29 10 3
29 11 2
29 12 2
29 13 1
29 14 2
29 15 2
29 16 3
29 17 2
29 18 2
29 19 1
29 20 1
29 21 2
29 22 1
29 23 3
29 24 3
29 25 1
29 26 1
29 27 1
29 28 2
